NAME 
ROWS
 N  OBJ
 L  R0      
 E  R1      
 E  R2      
 E  R3      
 E  R4      
 E  R5      
COLUMNS
    MARKER    'MARKER'                 'INTORG'
    I0(4)     OBJ       9
    I0(4)     R0        132
    I0(4)     R1        2
    I0(4)     R3        6
    I0(4)     R5        1
    I1(3)     OBJ       2
    I1(3)     R0        -82
    I1(3)     R2        11
    I1(3)     R5        1
    I2(3)     OBJ       -191
    I2(3)     R0        170
    I2(3)     R1        -1
    I2(3)     R5        1
    MARKER    'MARKER'                 'INTEND'
    C3(4)     OBJ       -3
    C3(4)     R0        -7
    C3(4)     R1        1
    C3(4)     R2        8
    C3(4)     R3        2
    C4(3)     OBJ       -1
    C4(3)     R0        9
    C4(3)     R2        8
    C4(3)     R3        9
    C5(1)     R1        1
    C6(1)     R2        1
    C7(1)     R3        1
    C8(1)     R4        1
    C9(1)     R5        1
RHS
    RHS1      R0        107.875
    RHS1      R1        71
    RHS1      R2        71
    RHS1      R3        75
    RHS1      R4        55
    RHS1      R5        1
BOUNDS
 UP BND1      I0(4)     1
 UP BND1      I1(3)     1
 UP BND1      I2(3)     1
ENDATA
